50
17312

483 137
879 972
884 555
460 886
738 806
872 692
976 711
899 95
784 572
411 931
311 715
703 878
567 199
993 188
544 174
762 785
708 821
769 336
38 573
150 788
828 907
28 416
57 912
483 727
927 95
903 404
586 886
927 543
440 151
116 302
193 651
217 746
152 742
882 295
710 712
671 713
650 503
204 877
234 992
184 657
256 72
314 868
845 561
912 389
176 879
157 940
439 307
452 956
653 8
679 28
